n_res = 4;
rc = [ 16, 15, 15, 15 ];
n_tasks = 90;
d = [ 2, 4, 3, 6, 10, 5, 2, 3, 1, 9, 4, 10, 8, 4, 7, 1, 5, 7, 10, 10, 7, 5, 1, 7, 6, 3, 10, 7, 3, 8, 8, 10, 7, 6, 4, 5, 4, 2, 10, 6, 3, 1, 2, 9, 3, 9, 2, 6, 3, 5, 6, 7, 1, 7, 7, 7, 4, 8, 9, 8, 10, 5, 1, 9, 6, 10, 9, 6, 5, 3, 2, 10, 2, 1, 10, 3, 8, 4, 6, 7, 5, 6, 8, 2, 6, 4, 1, 4, 2, 2 ];
rr = [| 0, 2, 0, 0, 1, 0, 1, 6, 0, 7, 0, 0, 8, 0, 3, 1, 0, 10, 7, 1, 0, 0, 0, 5, 6, 0, 5, 3, 7, 0, 0, 0, 0, 0, 2, 7, 0, 0, 0, 9, 0, 0, 0, 0, 6, 0, 4, 10, 5, 8, 8, 1, 0, 0, 4, 8, 4, 8, 3, 0, 0, 0, 0, 9, 1, 0, 5, 3, 5, 2, 8, 0, 1, 0, 0, 10, 0, 9, 0, 1, 0, 0, 0, 6, 0, 0, 3, 6, 1, 0
      | 4, 0, 0, 0, 7, 4, 2, 0, 0, 7, 7, 0, 7, 3, 0, 0, 3, 0, 0, 0, 9, 7, 0, 10, 0, 4, 3, 5, 0, 2, 0, 6, 5, 0, 1, 2, 3, 3, 3, 9, 0, 0, 7, 2, 6, 3, 0, 7, 0, 0, 4, 0, 0, 0, 0, 0, 0, 5, 0, 5, 0, 0, 0, 0, 2, 4, 10, 8, 4, 8, 0, 0, 5, 1, 6, 9, 0, 0, 0, 0, 0, 5, 7, 0, 0, 4, 7, 0, 0, 5
      | 0, 0, 8, 2, 0, 0, 0, 0, 8, 0, 7, 0, 8, 2, 1, 0, 10, 0, 0, 8, 10, 0, 10, 3, 9, 0, 0, 9, 4, 6, 3, 0, 10, 0, 0, 0, 0, 0, 7, 0, 0, 0, 1, 0, 2, 0, 8, 10, 0, 0, 0, 0, 0, 10, 0, 0, 0, 0, 9, 0, 0, 8, 6, 4, 0, 1, 6, 0, 0, 6, 0, 0, 9, 0, 7, 0, 6, 10, 0, 0, 4, 0, 0, 3, 0, 8, 4, 0, 6, 7
      | 2, 5, 0, 8, 10, 0, 0, 6, 1, 0, 0, 7, 0, 0, 0, 0, 0, 10, 4, 1, 0, 0, 0, 0, 0, 6, 10, 0, 0, 0, 1, 0, 3, 4, 0, 0, 9, 3, 6, 4, 7, 5, 9, 10, 2, 1, 2, 0, 4, 1, 0, 0, 10, 4, 10, 0, 9, 0, 0, 0, 6, 0, 0, 0, 2, 0, 0, 7, 10, 9, 0, 4, 7, 0, 2, 0, 0, 1, 1, 0, 3, 0, 1, 0, 6, 10, 0, 10, 0, 0 |];
suc = [ { 5, 20, 41 },
       { 4, 9, 19 },
       { 27, 28, 38 },
       { 6 },
       { 13, 33, 35 },
       { 7, 17, 26 },
       { 8, 10, 15 },
       { 12, 18, 21 },
       { 11, 43, 64 },
       { 44, 71 },
       { 30, 51, 54 },
       { 14, 31, 36 },
       { 16, 17, 69 },
       { 27, 62, 88 },
       { 25, 63, 74 },
       { 44, 81 },
       { 22, 34, 66 },
       { 23, 24, 42 },
       { 24, 57, 60 },
       { 29, 77 },
       { 55, 56, 70 },
       { 31, 45, 50 },
       { 45, 61 },
       { 27, 40 },
       { 59, 76 },
       { 32, 37, 56 },
       { 46, 51, 61 },
       { 37, 90 },
       { 32, 35, 44 },
       { 37, 47, 58 },
       { 59, 80, 84 },
       { 36, 57, 58 },
       { 40, 49, 61 },
       { 39, 48, 50 },
       { 40, 42, 73 },
       { 48, 78 },
       { 79 },
       { 39, 53, 76 },
       { 52, 54 },
       { 45, 46, 47 },
       { 43, 52, 72 },
       { 52 },
       { 50, 54, 65 },
       { 51, 87 },
       { 48, 65 },
       { 69 },
       { 63 },
       { 64, 75 },
       { 53, 56, 68 },
       { 55, 59, 67 },
       { 89 },
       { 58, 85 },
       { 57, 60, 67 },
       { 55, 71 },
       { 83 },
       { 79 },
       { 62, 70 },
       { 60, 62 },
       { 70, 77, 81 },
       { 65, 75 },
       { 64, 68, 73 },
       { 86 },
       { 68, 88 },
       { 72, 74 },
       { 86 },
       { 67, 74 },
       { 71, 73 },
       { 69, 83 },
       { 72, 78 },
       { 82 },
       { 75, 77, 80 },
       { 76 },
       { 84, 85 },
       { 80 },
       { 79 },
       { 82 },
       { 78, 87 },
       { 82 },
       { 81, 83, 88 },
       { 85 },
       { 87 },
       { 86 },
       { 84 },
       { 89 },
       { 90 },
       { 90 },
       { 89 },
       {  },
       {  },
       {  } ];
